set VV := 0 1 2 3 4 5 6 7 8 9 10 11 12 13 14 15 16 17 18 ;
set VS := 0 1 2 3 4 5 6 7 8 9 10 11 12 13 14 15 16 17 18 19 20 21 22 23 24 25 26 27 28 29 30 31 32 33 34 35 36 37 38 39 40 41 ;
param cv := 
0 25
1 17
2 19
3 20
4 12
5 21
6 14
7 20
8 17
9 22
10 19
11 11
12 15
13 12
14 14
15 23
16 10
17 25
18 13
;
param cs := 
0 33
1 37
2 38
3 23
4 20
5 38
6 25
7 26
8 33
9 36
10 30
11 29
12 20
13 38
14 40
15 25
16 28
17 25
18 21
19 27
20 36
21 35
22 40
23 21
24 24
25 20
26 39
27 30
28 34
29 32
30 34
31 36
32 26
33 36
34 34
35 24
36 31
37 33
38 32
39 34
40 20
41 34
;
param bv:	 0 1 2 3 4 5 6 7 8 9 10 11 12 13 14 15 16 17 18 := 
		0 0 0 0 0 0 0 0 0 0 0 0 0 0 0 0 0 24 0 0 
		1 0 0 0 0 0 0 0 0 0 0 0 0 0 0 0 0 0 17 15 
		2 0 0 0 0 0 0 0 0 0 0 0 24 0 20 0 0 0 0 0 
		3 0 0 0 0 0 0 13 13 0 0 0 0 0 0 0 0 21 0 0 
		4 0 0 0 0 0 0 0 0 0 21 0 0 0 0 0 0 0 0 0 
		5 0 0 0 0 0 0 0 0 0 0 0 17 19 0 0 0 0 0 0 
		6 0 0 0 0 0 0 0 0 0 0 0 0 24 0 0 0 0 0 0 
		7 0 0 0 0 0 0 0 0 0 0 0 0 0 19 0 0 0 0 0 
		8 0 0 0 0 0 0 0 0 0 0 0 0 0 0 22 0 0 0 24 
		9 0 0 0 0 0 0 0 0 0 0 10 0 0 0 0 10 14 12 0 
		10 0 0 0 0 0 0 0 0 0 0 0 0 0 0 0 0 0 0 0 
		11 0 0 0 0 0 0 0 0 0 0 0 0 0 0 0 0 17 0 0 
		12 0 0 0 0 0 0 0 0 0 0 0 0 0 0 0 0 0 0 11 
		13 0 0 0 0 0 0 0 0 0 0 0 0 0 0 0 0 0 0 0 
		14 0 0 0 0 0 0 0 0 0 0 0 0 0 0 0 0 0 0 0 
		15 0 0 0 0 0 0 0 0 0 0 0 0 0 0 0 0 0 0 18 
		16 0 0 0 0 0 0 0 0 0 0 0 0 0 0 0 0 0 0 0 
		17 0 0 0 0 0 0 0 0 0 0 0 0 0 0 0 0 0 0 0 
		18 0 0 0 0 0 0 0 0 0 0 0 0 0 0 0 0 0 0 0 
;
param bs:	 0 1 2 3 4 5 6 7 8 9 10 11 12 13 14 15 16 17 18 19 20 21 22 23 24 25 26 27 28 29 30 31 32 33 34 35 36 37 38 39 40 41 := 
		0 0 0 0 26 0 0 38 0 0 0 0 0 0 0 0 0 0 0 0 0 0 26 0 0 0 0 0 0 0 0 0 0 0 39 22 27 0 0 0 0 0 0 
		1 0 0 0 0 0 0 0 0 0 0 0 0 0 0 40 0 0 39 0 0 0 0 30 0 0 0 0 26 22 0 23 27 0 0 0 0 0 0 0 0 0 0 
		2 0 0 0 0 0 0 0 0 0 0 0 0 0 0 0 39 0 0 0 0 0 0 0 0 0 0 0 0 0 0 0 0 0 0 0 0 0 0 20 0 0 0 
		3 26 0 0 0 0 0 0 0 0 0 0 28 0 0 0 21 0 0 0 0 0 0 0 0 0 0 0 0 28 0 0 0 0 0 0 0 0 0 0 0 0 0 
		4 0 0 0 0 0 0 0 0 30 0 32 0 0 0 0 0 0 0 0 0 0 0 0 36 0 0 0 0 0 0 22 21 0 0 0 0 0 24 0 0 0 0 
		5 0 0 0 0 0 0 0 0 0 0 31 0 34 0 0 0 0 0 0 0 0 0 0 0 0 0 0 0 0 0 0 0 0 0 0 0 0 33 0 0 0 0 
		6 38 0 0 0 0 0 0 0 0 0 31 0 0 0 0 0 0 0 0 21 0 0 0 0 32 0 0 0 0 0 0 0 0 36 0 0 23 0 0 37 0 0 
		7 0 0 0 0 0 0 0 0 0 0 0 0 0 0 0 0 0 0 0 0 0 29 0 0 0 0 0 0 0 0 0 0 0 30 0 0 0 0 32 0 0 0 
		8 0 0 0 0 30 0 0 0 0 0 0 0 0 34 0 0 0 0 0 0 0 0 0 0 0 0 0 0 0 0 0 0 0 0 0 0 0 0 0 0 0 0 
		9 0 0 0 0 0 0 0 0 0 0 0 0 0 0 36 0 0 0 0 0 29 0 0 28 0 0 0 0 0 0 0 0 0 22 0 0 0 0 0 0 0 0 
		10 0 0 0 0 32 31 31 0 0 0 0 0 0 0 32 0 0 0 0 32 0 0 0 0 0 0 27 0 0 0 0 0 26 0 0 0 0 26 0 0 32 0 
		11 0 0 0 28 0 0 0 0 0 0 0 0 0 0 0 0 0 0 0 0 0 36 0 0 0 0 0 0 0 0 0 0 0 0 0 0 0 0 0 21 0 31 
		12 0 0 0 0 0 34 0 0 0 0 0 0 0 0 0 0 0 0 0 0 38 0 0 0 0 0 0 0 0 0 0 0 22 0 28 0 0 0 0 0 0 0 
		13 0 0 0 0 0 0 0 0 34 0 0 0 0 0 0 0 0 0 0 0 0 40 0 0 0 0 0 0 0 0 0 0 0 0 0 0 0 0 24 0 0 0 
		14 0 40 0 0 0 0 0 0 0 36 32 0 0 0 0 0 0 0 0 21 0 0 28 0 0 28 0 0 0 34 21 0 0 29 0 39 0 0 0 0 34 0 
		15 0 0 39 21 0 0 0 0 0 0 0 0 0 0 0 0 31 0 0 0 0 0 0 0 0 0 0 0 0 0 0 0 0 0 28 0 0 0 0 0 0 0 
		16 0 0 0 0 0 0 0 0 0 0 0 0 0 0 0 31 0 20 0 0 0 34 0 0 0 0 0 0 0 36 0 0 0 0 0 29 0 0 0 0 0 0 
		17 0 39 0 0 0 0 0 0 0 0 0 0 0 0 0 0 20 0 0 0 0 0 0 0 0 0 0 0 0 0 0 0 0 0 0 0 0 28 0 0 0 0 
		18 0 0 0 0 0 0 0 0 0 0 0 0 0 0 0 0 0 0 0 30 0 0 0 0 0 0 0 40 34 0 0 31 0 0 0 0 0 0 0 0 0 0 
		19 0 0 0 0 0 0 21 0 0 0 32 0 0 0 21 0 0 0 30 0 0 0 0 0 27 0 28 0 0 0 28 0 0 0 0 0 0 0 0 28 0 0 
		20 0 0 0 0 0 0 0 0 0 29 0 0 38 0 0 0 0 0 0 0 0 0 0 0 25 0 0 0 0 0 0 37 0 0 0 0 0 0 0 0 0 36 
		21 26 0 0 0 0 0 0 29 0 0 0 36 0 40 0 0 34 0 0 0 0 0 0 33 0 0 0 0 0 31 0 0 0 0 0 0 0 29 0 0 0 0 
		22 0 30 0 0 0 0 0 0 0 0 0 0 0 0 28 0 0 0 0 0 0 0 0 0 0 0 0 0 0 0 0 0 20 0 0 0 0 0 0 0 28 0 
		23 0 0 0 0 36 0 0 0 0 28 0 0 0 0 0 0 0 0 0 0 0 33 0 0 0 0 37 0 0 0 23 0 0 0 0 0 0 0 30 0 0 0 
		24 0 0 0 0 0 0 32 0 0 0 0 0 0 0 0 0 0 0 0 27 25 0 0 0 0 0 0 0 0 0 0 37 24 0 0 0 0 29 0 0 25 28 
		25 0 0 0 0 0 0 0 0 0 0 0 0 0 0 28 0 0 0 0 0 0 0 0 0 0 0 29 0 0 0 0 0 0 0 0 0 0 0 0 0 39 0 
		26 0 0 0 0 0 0 0 0 0 0 27 0 0 0 0 0 0 0 0 28 0 0 0 37 0 29 0 0 0 0 0 0 0 0 0 0 0 0 0 0 0 0 
		27 0 26 0 0 0 0 0 0 0 0 0 0 0 0 0 0 0 0 40 0 0 0 0 0 0 0 0 0 0 21 0 0 0 0 0 0 0 0 0 0 0 0 
		28 0 22 0 28 0 0 0 0 0 0 0 0 0 0 0 0 0 0 34 0 0 0 0 0 0 0 0 0 0 0 0 0 0 0 0 0 0 0 0 0 0 0 
		29 0 0 0 0 0 0 0 0 0 0 0 0 0 0 34 0 36 0 0 0 0 31 0 0 0 0 0 21 0 0 0 37 0 35 0 0 0 20 0 0 31 0 
		30 0 23 0 0 22 0 0 0 0 0 0 0 0 0 21 0 0 0 0 28 0 0 0 23 0 0 0 0 0 0 0 0 0 33 0 0 0 0 24 0 0 0 
		31 0 27 0 0 21 0 0 0 0 0 0 0 0 0 0 0 0 0 31 0 37 0 0 0 37 0 0 0 0 37 0 0 0 0 20 0 0 0 29 0 0 0 
		32 0 0 0 0 0 0 0 0 0 0 26 0 22 0 0 0 0 0 0 0 0 0 20 0 24 0 0 0 0 0 0 0 0 0 0 0 0 0 0 0 0 0 
		33 39 0 0 0 0 0 36 30 0 22 0 0 0 0 29 0 0 0 0 0 0 0 0 0 0 0 0 0 0 35 33 0 0 0 0 0 0 0 0 33 27 0 
		34 22 0 0 0 0 0 0 0 0 0 0 0 28 0 0 28 0 0 0 0 0 0 0 0 0 0 0 0 0 0 0 20 0 0 0 0 0 0 20 0 0 0 
		35 27 0 0 0 0 0 0 0 0 0 0 0 0 0 39 0 29 0 0 0 0 0 0 0 0 0 0 0 0 0 0 0 0 0 0 0 0 0 32 0 0 0 
		36 0 0 0 0 0 0 23 0 0 0 0 0 0 0 0 0 0 0 0 0 0 0 0 0 0 0 0 0 0 0 0 0 0 0 0 0 0 0 0 0 0 0 
		37 0 0 0 0 24 33 0 0 0 0 26 0 0 0 0 0 0 28 0 0 0 29 0 0 29 0 0 0 0 20 0 0 0 0 0 0 0 0 0 0 0 0 
		38 0 0 20 0 0 0 0 32 0 0 0 0 0 24 0 0 0 0 0 0 0 0 0 30 0 0 0 0 0 0 24 29 0 0 20 32 0 0 0 0 0 0 
		39 0 0 0 0 0 0 37 0 0 0 0 21 0 0 0 0 0 0 0 28 0 0 0 0 0 0 0 0 0 0 0 0 0 33 0 0 0 0 0 0 0 0 
		40 0 0 0 0 0 0 0 0 0 0 32 0 0 0 34 0 0 0 0 0 0 0 28 0 25 39 0 0 0 31 0 0 0 27 0 0 0 0 0 0 0 0 
		41 0 0 0 0 0 0 0 0 0 0 0 31 0 0 0 0 0 0 0 0 36 0 0 0 28 0 0 0 0 0 0 0 0 0 0 0 0 0 0 0 0 0 
;
